c Reduced graph for p30 generated by Cyril Grelier
p edge 60 317
e 1 5
e 1 6
e 1 7
e 1 10
e 1 12
e 1 17
e 1 18
e 1 19
e 1 20
e 1 21
e 1 22
e 1 23
e 1 42
e 1 43
e 2 3
e 2 4
e 2 11
e 2 13
e 2 14
e 2 15
e 2 16
e 2 26
e 2 29
e 2 31
e 2 35
e 2 45
e 2 54
e 3 4
e 3 8
e 3 13
e 3 14
e 3 15
e 3 16
e 3 27
e 3 29
e 3 32
e 3 36
e 3 46
e 3 55
e 4 6
e 4 9
e 4 13
e 4 14
e 4 15
e 4 16
e 4 28
e 4 29
e 4 33
e 4 37
e 4 47
e 5 6
e 5 19
e 5 20
e 5 21
e 5 22
e 5 24
e 5 25
e 5 30
e 5 34
e 5 43
e 5 44
e 5 53
e 6 9
e 6 19
e 6 20
e 6 21
e 6 22
e 6 28
e 6 33
e 6 37
e 6 43
e 6 47
e 7 10
e 7 11
e 7 12
e 7 17
e 7 18
e 7 23
e 7 42
e 7 48
e 7 49
e 7 50
e 7 51
e 7 60
e 8 9
e 8 27
e 8 32
e 8 36
e 8 38
e 8 39
e 8 40
e 8 41
e 8 46
e 8 52
e 8 55
e 9 28
e 9 33
e 9 37
e 9 38
e 9 39
e 9 40
e 9 41
e 9 47
e 9 52
e 10 12
e 10 17
e 10 18
e 10 23
e 10 24
e 10 42
e 10 56
e 10 57
e 10 58
e 10 59
e 11 26
e 11 31
e 11 35
e 11 45
e 11 48
e 11 49
e 11 50
e 11 51
e 11 54
e 11 60
e 12 17
e 12 18
e 12 23
e 12 25
e 12 26
e 12 27
e 12 28
e 12 42
e 13 14
e 13 15
e 13 16
e 13 19
e 13 29
e 13 38
e 13 48
e 13 56
e 14 15
e 14 16
e 14 20
e 14 29
e 14 39
e 14 49
e 14 57
e 15 16
e 15 21
e 15 29
e 15 40
e 15 50
e 15 58
e 16 22
e 16 29
e 16 41
e 16 51
e 16 59
e 17 18
e 17 23
e 17 30
e 17 31
e 17 32
e 17 33
e 17 42
e 18 23
e 18 34
e 18 35
e 18 36
e 18 37
e 18 42
e 19 20
e 19 21
e 19 22
e 19 38
e 19 43
e 19 48
e 19 56
e 20 21
e 20 22
e 20 39
e 20 43
e 20 49
e 20 57
e 21 22
e 21 40
e 21 43
e 21 50
e 21 58
e 22 41
e 22 43
e 22 51
e 22 59
e 23 42
e 23 44
e 23 45
e 23 46
e 23 47
e 24 25
e 24 30
e 24 34
e 24 44
e 24 53
e 24 56
e 24 57
e 24 58
e 24 59
e 25 26
e 25 27
e 25 28
e 25 30
e 25 34
e 25 44
e 25 53
e 26 27
e 26 28
e 26 31
e 26 35
e 26 45
e 26 54
e 27 28
e 27 32
e 27 36
e 27 46
e 27 55
e 28 33
e 28 37
e 28 47
e 29 43
e 29 52
e 29 60
e 30 31
e 30 32
e 30 33
e 30 34
e 30 44
e 30 53
e 31 32
e 31 33
e 31 35
e 31 45
e 31 54
e 32 33
e 32 36
e 32 46
e 32 55
e 33 37
e 33 47
e 34 35
e 34 36
e 34 37
e 34 44
e 34 53
e 35 36
e 35 37
e 35 45
e 35 54
e 36 37
e 36 46
e 36 55
e 37 47
e 38 39
e 38 40
e 38 41
e 38 48
e 38 52
e 38 56
e 39 40
e 39 41
e 39 49
e 39 52
e 39 57
e 40 41
e 40 50
e 40 52
e 40 58
e 41 51
e 41 52
e 41 59
e 42 53
e 42 54
e 42 55
e 43 52
e 43 60
e 44 45
e 44 46
e 44 47
e 44 53
e 45 46
e 45 47
e 45 54
e 46 47
e 46 55
e 48 49
e 48 50
e 48 51
e 48 56
e 48 60
e 49 50
e 49 51
e 49 57
e 49 60
e 50 51
e 50 58
e 50 60
e 51 59
e 51 60
e 52 60
e 53 54
e 53 55
e 54 55
e 56 57
e 56 58
e 56 59
e 57 58
e 57 59
e 58 59
